% Número total de personas
n = 10;

% Número de opiniones posibles
m = 5;

% Distribución inicial de personas por opinión
p = [6, 1, 0, 1, 2];

% Valores de las opiniones
v = [0.011, 0.214, 0.290, 0.829, 0.944];

% Costos extras al mover a opiniones vacías
ce = [5.590, 5.501, 9.646, 2.293, 9.309];

% Matriz de costos de mover de una opinión a otra
C = array2d(1..5, 1..5,
  [
    0.000,    0.604,    0.052,    4.814,    4.611,
    2.146,    0.000,    0.381,    2.747,    4.802,
    3.460,    1.832,    0.000,    1.072,    3.702,
    0.438,    2.620,    4.623,    0.000,    2.605,
    2.246,    1.200,    4.828,    0.547,    0.000
  ]);

% Costo total máximo permitido
C_max = 29.350;

% Número máximo de movimientos permitidos
M_max = 9;
